NAME : auto_generated
COMMENT : Automatically generated TSP instance
TYPE : TSP
DIMENSION : 25
EDGE_WEIGHT_TYPE : EUC_2D
NODE_COORD_SECTION
1 62 99
2 80 9
3 1 70
4 97 92
5 15 8
6 100 52
7 24 0
8 39 31
9 18 35
10 43 93
11 30 15
12 71 44
13 4 85
14 3 9
15 24 11
16 59 28
17 82 14
18 20 49
19 36 40
20 53 58
21 21 91
22 13 9
23 66 94
24 96 93
25 34 77
EOF
